array [1..4] of int: d = [2, 5, 3, 4];
var bool: BOOL____00001 :: is_defined_var :: var_is_introduced;
var bool: BOOL____00002 :: is_defined_var :: var_is_introduced;
var bool: BOOL____00004 :: is_defined_var :: var_is_introduced;
var bool: BOOL____00005 :: is_defined_var :: var_is_introduced;
var 5..14: end;
array [1..4] of var 0..14: s :: output_array([1..2, 1..2]);
constraint array_bool_or([BOOL____00001, BOOL____00002], true);
constraint array_bool_or([BOOL____00004, BOOL____00005], true);
constraint int_lin_le([-1, 1], [end, s[2]], -5);
constraint int_lin_le([-1, 1], [end, s[4]], -4);
constraint int_lin_le([1, -1], [s[1], s[2]], -2);
constraint int_lin_le([1, -1], [s[3], s[4]], -3);
constraint int_lin_le_reif([-1, 1], [s[1], s[3]], -3, BOOL____00002) :: defines_var(BOOL____00002);
constraint int_lin_le_reif([-1, 1], [s[2], s[4]], -4, BOOL____00005) :: defines_var(BOOL____00005);
constraint int_lin_le_reif([1, -1], [s[1], s[3]], -2, BOOL____00001) :: defines_var(BOOL____00001);
constraint int_lin_le_reif([1, -1], [s[2], s[4]], -5, BOOL____00004) :: defines_var(BOOL____00004);
solve minimize end;
